Running for instance ./models/c108.txt
Generating routes...
Execution time:  3.834758  seconds
Academic license - for non-commercial use only
Warning: constraint name "Cliente esta na rota x1" has a space
Optimize a model with 26 rows, 10000 columns and 61058 nonzeros
Variable types: 0 continuous, 10000 integer (0 binary)
Coefficient statistics:
  Matrix range     [1e+00, 1e+00]
  Objective range  [2e+01, 2e+02]
  Bounds range     [1e+00, 1e+00]
  RHS range        [1e+00, 2e+01]
Found heuristic solution: objective 553.3695557
Presolve removed 1 rows and 2599 columns
Presolve time: 0.06s
Presolved: 25 rows, 7401 columns, 38832 nonzeros
Found heuristic solution: objective 548.4675360
Variable types: 0 continuous, 7401 integer (7401 binary)

Root relaxation: objective 2.402540e+02, 74 iterations, 0.01 seconds

    Nodes    |    Current Node    |     Objective Bounds      |     Work
 Expl Unexpl |  Obj  Depth IntInf | Incumbent    BestBd   Gap | It/Node Time

     0     0  240.25402    0   17  548.46754  240.25402  56.2%     -    0s
H    0     0                     298.6592241  240.25402  19.6%     -    0s
     0     0  240.25402    0   17  298.65922  240.25402  19.6%     -    0s
H    0     0                     289.7551962  240.25402  17.1%     -    0s
     0     0  240.25402    0   17  289.75520  240.25402  17.1%     -    0s
H    0     0                     281.0053667  240.25402  14.5%     -    0s
     0     0  241.70924    0   20  281.00537  241.70924  14.0%     -    0s
     0     0  242.42873    0   21  281.00537  242.42873  13.7%     -    0s
     0     0  242.42873    0   21  281.00537  242.42873  13.7%     -    0s
     0     2  242.42873    0   21  281.00537  242.42873  13.7%     -    0s
*    9     4               3     277.4213340  248.22136  10.5%  10.3    0s
*   54     1              16     272.5403998  264.54512  2.93%   7.2    0s

Explored 60 nodes (668 simplex iterations) in 0.34 seconds
Thread count was 8 (of 8 available processors)

Solution count 6: 272.54 277.421 281.005 ... 548.468

Optimal solution found (tolerance 1.00e-04)
Best objective 2.725403998054e+02, best bound 2.725403998054e+02, gap 0.0000%

Routes:
8 13 10 11
20 24 25 22 23
5 7 3 9 6 4 1 2 21
17 18 19 15 16 14 12

Distance: 272.540399805
Execution time:  5.041258  seconds
